100
32
25
24
4
19
8
8
3
8
14
17
11
5
2
2
6
14
4
29
29
20
10
1
19
30
23
5
7
14
28
7
26
13
1
5
4
18
2
1
2
3
18
1
21
1
2
1
1
17
3
2
4
5
1
1
24
1
6
3
4
2
19
3
2
1
2
4
1
3
4
4
2
8
3
1
17
3
3
1
16
3
2
4
3
3
4
1
1
2
17
25
1
2
1
2
5
1
2
9
3
18